; benchmark generated from python API
(set-info :status unknown)
(declare-fun strlen_72_64 () (_ BitVec 64))
(declare-fun args_0_8 () (_ BitVec 8))
(declare-fun strlen_75_64 () (_ BitVec 64))
(declare-fun args_1_8 () (_ BitVec 8))
(declare-fun sigaction_oldact_171_1216 () (_ BitVec 1216))
(declare-fun sigaction_oldact_176_1216 () (_ BitVec 1216))
(declare-fun sigaction_oldact_187_1216 () (_ BitVec 1216))
(declare-fun sigaction_oldact_204_1216 () (_ BitVec 1216))
(declare-fun sigaction_oldact_238_1216 () (_ BitVec 1216))
(declare-fun sigaction_oldact_299_1216 () (_ BitVec 1216))
(declare-fun sigaction_oldact_428_1216 () (_ BitVec 1216))
(declare-fun sigaction_oldact_689_1216 () (_ BitVec 1216))
(declare-fun sigaction_oldact_1176_1216 () (_ BitVec 1216))
(declare-fun sigaction_oldact_2214_1216 () (_ BitVec 1216))
(assert
 (let (($x351 (= (_ bv1 64) strlen_72_64)))
 (not $x351)))
(assert
 (let ((?x82 (bvadd (_ bv576460752303357824 64) strlen_72_64)))
 (let (($x69 (= (_ bv0 8) args_0_8)))
 (let ((?x46 (ite $x69 (_ bv576460752303357824 64) (_ bv576460752303357825 64))))
 (= ?x46 ?x82)))))
(assert
 (let (($x347 (= (_ bv0 8) args_1_8)))
 (let ((?x355 (ite $x347 (_ bv576460752303357826 64) (_ bv576460752303357827 64))))
 (let ((?x356 (bvsub ?x355 (_ bv576460752303357826 64))))
 (= ?x356 strlen_75_64)))))
(assert
 (let ((?x1831 ((_ extract 127 120) sigaction_oldact_171_1216)))
 (let ((?x2319 (bvand ?x1831 (_ bv4 8))))
 (and (distinct (_ bv0 8) ?x2319) true))))
(assert
 (let ((?x2276 ((_ extract 127 120) sigaction_oldact_176_1216)))
 (let ((?x2398 (bvand ?x2276 (_ bv4 8))))
 (and (distinct (_ bv0 8) ?x2398) true))))
(assert
 (let ((?x2885 ((_ extract 127 120) sigaction_oldact_187_1216)))
 (let ((?x2910 (bvand ?x2885 (_ bv4 8))))
 (and (distinct (_ bv0 8) ?x2910) true))))
(assert
 (let ((?x4024 ((_ extract 127 120) sigaction_oldact_204_1216)))
 (let ((?x4067 (bvand ?x4024 (_ bv4 8))))
 (= (_ bv0 8) ?x4067))))
(assert
 (let ((?x6072 ((_ extract 127 120) sigaction_oldact_238_1216)))
 (let ((?x6097 (bvand ?x6072 (_ bv4 8))))
 (= (_ bv0 8) ?x6097))))
(assert
 (let ((?x10141 ((_ extract 127 120) sigaction_oldact_299_1216)))
 (let ((?x10161 (bvand ?x10141 (_ bv4 8))))
 (and (distinct (_ bv0 8) ?x10161) true))))
(assert
 (let ((?x19927 ((_ extract 127 120) sigaction_oldact_428_1216)))
 (let ((?x20068 (bvand ?x19927 (_ bv4 8))))
 (and (distinct (_ bv0 8) ?x20068) true))))
(assert
 (let ((?x38358 ((_ extract 127 120) sigaction_oldact_689_1216)))
 (let ((?x38383 (bvand ?x38358 (_ bv4 8))))
 (= (_ bv0 8) ?x38383))))
(assert
 (let ((?x67734 ((_ extract 127 120) sigaction_oldact_1176_1216)))
 (let ((?x26788 (bvand ?x67734 (_ bv4 8))))
 (and (distinct (_ bv0 8) ?x26788) true))))
(assert
 (let ((?x127352 ((_ extract 127 120) sigaction_oldact_2214_1216)))
 (let ((?x91204 (bvand ?x127352 (_ bv4 8))))
 (and (distinct (_ bv0 8) ?x91204) true))))
(minimize args_1_8)
(minimize sigaction_oldact_204_1216)
(minimize sigaction_oldact_1176_1216)
(maximize args_1_8)
(maximize sigaction_oldact_689_1216)
(maximize sigaction_oldact_238_1216)
(minimize sigaction_oldact_2214_1216)
(minimize strlen_72_64)
(minimize sigaction_oldact_171_1216)
(minimize args_0_8)
(minimize sigaction_oldact_299_1216)
(minimize sigaction_oldact_238_1216)
(maximize strlen_75_64)
(maximize sigaction_oldact_204_1216)
(minimize sigaction_oldact_187_1216)
(minimize strlen_75_64)
(maximize sigaction_oldact_171_1216)
(maximize sigaction_oldact_1176_1216)
(maximize sigaction_oldact_187_1216)
(maximize strlen_72_64)
(maximize sigaction_oldact_428_1216)
(minimize sigaction_oldact_428_1216)
(maximize sigaction_oldact_2214_1216)
(maximize args_0_8)
(maximize sigaction_oldact_299_1216)
(maximize sigaction_oldact_176_1216)
(minimize sigaction_oldact_176_1216)
(minimize sigaction_oldact_689_1216)
(check-sat)
(get-objectives)
